424 5
10 10 10 10 10 

0 0 0 0 0 0 5 2 14 26 38 50 
0 0 0 0 0 0 2 3 4 
2 1 0 0 0 0 1 5 
2 4 0 0 0 0 1 5 
7 3 0 0 0 0 2 6 366 
4 4 0 0 0 0 3 12 8 7 
6 2 0 0 0 0 3 11 10 9 
6 3 0 0 0 0 3 11 10 9 
8 2 0 0 0 0 1 13 
10 1 0 0 0 0 1 13 
5 2 0 0 0 0 1 13 
2 3 0 0 0 0 1 13 
0 0 0 0 0 0 1 62 
0 0 0 0 0 0 4 15 16 17 19 
6 1 0 0 0 0 2 24 20 
8 2 0 0 0 0 1 18 
2 1 0 0 0 0 2 23 21 
5 1 0 0 0 0 1 20 
5 3 0 0 0 0 2 20 79 
3 5 0 0 0 0 1 21 
1 3 0 0 0 0 1 22 
3 2 0 0 0 0 1 25 
3 4 0 0 0 0 1 25 
2 3 0 0 0 0 1 25 
0 0 0 0 0 0 1 62 
0 0 0 0 0 0 4 27 29 35 36 
1 0 0 0 1 0 2 33 28 
6 0 0 0 5 0 2 34 30 
7 0 0 0 3 0 3 33 31 96 
8 0 0 0 5 0 1 31 
9 0 0 0 1 0 1 32 
9 0 0 0 3 0 1 37 
4 0 0 0 1 0 1 37 
2 0 0 0 1 0 1 37 
8 0 0 0 3 0 1 37 
3 0 0 0 2 0 1 37 
0 0 0 0 0 0 1 62 
0 0 0 0 0 0 3 39 40 42 
1 0 1 0 0 0 2 43 41 
6 0 4 0 0 0 3 43 41 69 
5 0 3 0 0 0 2 45 44 
3 0 2 0 0 0 2 47 45 
4 0 4 0 0 0 1 44 
10 0 1 0 0 0 2 47 46 
6 0 2 0 0 0 1 46 
5 0 2 0 0 0 1 48 
5 0 3 0 0 0 1 48 
5 0 3 0 0 0 1 49 
0 0 0 0 0 0 1 62 
0 0 0 0 0 0 1 51 
3 0 0 1 0 0 3 60 52 113 
10 0 0 2 0 0 3 59 54 53 
3 0 0 3 0 0 3 58 57 55 
1 0 0 1 0 0 2 57 56 
6 0 0 3 0 0 1 56 
3 0 0 4 0 0 1 61 
5 0 0 2 0 0 1 61 
8 0 0 2 0 0 1 61 
3 0 0 4 0 0 1 61 
10 0 0 3 0 0 1 61 
0 0 0 0 0 0 1 62 
0 0 0 0 0 0 5 63 75 87 99 111 
0 0 0 0 0 0 1 64 
1 0 1 0 0 0 2 66 65 
7 0 5 0 0 0 2 68 67 
7 0 3 0 0 0 2 68 67 
9 0 2 0 0 0 3 73 71 69 
2 0 1 0 0 0 2 70 69 
4 0 3 0 0 0 1 72 
9 0 1 0 0 0 1 72 
9 0 2 0 0 0 2 72 380 
3 0 2 0 0 0 1 74 
7 0 5 0 0 0 1 74 
0 0 0 0 0 0 1 123 
0 0 0 0 0 0 4 76 78 80 81 
6 0 1 0 0 0 2 77 420 
3 0 1 0 0 0 2 83 79 
4 0 3 0 0 0 2 83 82 
10 0 3 0 0 0 2 85 82 
10 0 3 0 0 0 2 85 84 
9 0 3 0 0 0 1 82 
6 0 2 0 0 0 1 84 
4 0 4 0 0 0 1 85 
1 0 2 0 0 0 1 86 
2 0 3 0 0 0 1 86 
0 0 0 0 0 0 1 123 
0 0 0 0 0 0 3 88 91 97 
10 0 0 1 0 0 1 89 
2 0 0 3 0 0 2 93 90 
7 0 0 2 0 0 3 96 92 105 
1 0 0 2 0 0 1 94 
8 0 0 4 0 0 1 95 
4 0 0 3 0 0 1 95 
10 0 0 3 0 0 1 95 
4 0 0 1 0 0 1 98 
3 0 0 4 0 0 1 98 
9 0 0 2 0 0 1 98 
0 0 0 0 0 0 1 123 
0 0 0 0 0 0 3 100 101 102 
10 0 0 0 1 0 3 107 104 103 
10 0 0 0 2 0 4 107 104 103 296 
4 0 0 0 3 0 3 109 107 104 
5 0 0 0 3 0 2 109 105 
10 0 0 0 3 0 1 105 
7 0 0 0 2 0 1 106 
4 0 0 0 4 0 1 108 
8 0 0 0 3 0 1 108 
2 0 0 0 2 0 1 110 
6 0 0 0 2 0 1 110 
0 0 0 0 0 0 1 123 
0 0 0 0 0 0 4 112 114 115 118 
10 0 1 0 0 0 2 113 409 
3 0 2 0 0 0 3 121 120 116 
7 0 3 0 0 0 3 121 120 116 
8 0 4 0 0 0 3 121 120 116 
10 0 1 0 0 0 1 117 
3 0 5 0 0 0 1 119 
1 0 1 0 0 0 1 120 
10 0 4 0 0 0 1 122 
4 0 3 0 0 0 1 122 
10 0 1 0 0 0 1 122 
0 0 0 0 0 0 1 123 
0 0 0 0 0 0 5 124 156 188 220 232 
0 0 0 0 0 0 3 125 126 131 
2 1 1 0 1 0 2 136 127 
1 3 2 0 3 0 2 136 127 
4 2 4 0 4 0 2 132 128 
6 1 4 0 4 0 2 133 129 
2 5 4 0 3 0 1 130 
4 2 1 0 3 0 3 140 137 134 
1 3 6 0 2 0 2 136 133 
4 1 3 0 3 0 1 133 
2 3 3 0 1 0 2 140 135 
5 2 5 0 1 0 2 135 357 
3 6 3 0 2 0 3 145 142 138 
8 2 1 0 1 0 2 140 138 
2 1 2 0 1 0 2 145 139 
9 2 2 0 1 0 1 139 
3 4 2 0 3 0 2 147 141 
3 2 1 0 4 0 2 145 141 
5 2 2 0 3 0 1 143 
2 2 2 0 2 0 1 143 
2 5 2 0 3 0 1 144 
2 3 1 0 4 0 2 149 146 
5 2 2 0 5 0 2 149 146 
9 2 1 0 3 0 5 154 153 152 150 148 
1 1 2 0 3 0 2 150 148 
8 2 2 0 2 0 1 151 
8 3 2 0 2 0 1 150 
8 1 2 0 2 0 1 155 
4 3 4 0 3 0 1 155 
6 3 2 0 2 0 1 155 
9 2 3 0 2 0 1 155 
6 4 4 0 2 0 1 155 
0 0 0 0 0 0 1 424 
0 0 0 0 0 0 3 157 161 186 
3 0 0 1 1 1 2 185 158 
10 0 0 3 2 3 2 183 159 
4 0 0 1 1 1 1 160 
7 0 0 3 2 3 3 182 181 162 
6 0 0 3 4 3 5 184 181 179 178 164 
1 0 0 4 2 4 2 163 373 
5 0 0 5 2 1 4 180 179 178 164 
6 0 0 4 2 4 1 165 
9 0 0 2 5 3 2 177 166 
5 0 0 2 3 2 1 167 
4 0 0 3 3 2 1 168 
5 0 0 2 3 1 2 176 169 
10 0 0 1 1 2 4 175 174 173 170 
5 0 0 2 3 1 1 171 
10 0 0 2 4 4 1 172 
1 0 0 3 4 1 1 187 
3 0 0 3 1 4 1 187 
3 0 0 3 2 4 1 187 
9 0 0 4 1 3 1 187 
3 0 0 2 1 3 1 187 
8 0 0 1 5 2 1 187 
10 0 0 3 1 3 1 187 
3 0 0 2 4 4 1 187 
8 0 0 2 1 3 1 187 
4 0 0 2 4 3 1 187 
10 0 0 3 3 2 1 187 
8 0 0 2 1 2 1 187 
5 0 0 1 3 2 1 187 
4 0 0 4 2 1 1 187 
4 0 0 2 4 3 1 187 
0 0 0 0 0 0 1 424 
0 0 0 0 0 0 3 189 203 218 
2 1 0 1 0 1 3 217 216 190 
6 2 0 4 0 3 2 214 191 
10 2 0 2 0 3 2 213 192 
3 6 0 1 0 3 3 212 211 193 
10 1 0 1 0 1 1 194 
10 2 0 2 0 2 2 210 195 
7 2 0 1 0 2 1 196 
2 3 0 3 0 3 2 209 197 
3 4 0 2 0 1 2 208 198 
3 4 0 3 0 4 2 207 199 
1 2 0 3 0 3 2 206 200 
8 1 0 3 0 1 2 205 201 
10 2 0 1 0 4 1 202 
3 2 0 2 0 2 1 204 
5 2 0 4 0 1 1 215 
9 4 0 4 0 3 1 219 
5 1 0 4 0 1 1 219 
4 1 0 2 0 1 1 219 
1 1 0 2 0 3 1 219 
4 2 0 5 0 3 1 219 
7 6 0 2 0 3 1 219 
7 1 0 1 0 3 1 219 
6 2 0 1 0 6 1 219 
2 3 0 2 0 3 1 219 
8 1 0 3 0 1 1 219 
7 2 0 2 0 3 1 219 
8 5 0 7 0 5 1 219 
7 2 0 2 0 4 1 219 
1 5 0 3 0 1 2 219 416 
3 3 0 2 0 1 1 219 
0 0 0 0 0 0 1 424 
0 0 0 0 0 0 4 221 222 229 230 
7 1 0 0 0 0 2 228 223 
9 4 0 0 0 0 2 227 225 
3 1 0 0 0 0 1 224 
3 5 0 0 0 0 1 225 
10 4 0 0 0 0 1 226 
7 2 0 0 0 0 1 231 
8 2 0 0 0 0 2 231 299 
5 2 0 0 0 0 1 231 
7 2 0 0 0 0 1 231 
1 2 0 0 0 0 1 231 
0 0 0 0 0 0 5 264 286 308 330 342 
0 0 0 0 0 0 3 233 234 243 
3 1 0 1 0 1 2 247 235 
5 2 0 2 0 2 2 247 235 
7 5 0 4 0 2 2 239 236 
4 3 0 1 0 4 2 242 237 
8 3 0 2 0 1 2 252 238 
5 2 0 4 0 4 2 250 240 
10 4 0 2 0 5 2 242 241 
8 1 0 5 0 3 1 241 
6 1 0 3 0 3 3 257 249 244 
9 2 0 2 0 4 2 257 244 
10 3 0 1 0 3 4 254 252 249 248 
4 2 0 4 0 2 2 254 245 
9 1 0 2 0 3 1 246 
1 5 0 4 0 4 1 248 
2 2 0 7 0 3 1 248 
5 2 0 1 0 2 2 262 251 
7 3 0 2 0 1 2 262 251 
3 6 0 2 0 2 3 262 251 371 
4 1 0 3 0 4 3 261 256 253 
4 3 0 1 0 3 3 261 256 253 
7 3 0 2 0 2 3 260 259 255 
8 3 0 1 0 2 1 255 
1 3 0 2 0 1 1 258 
8 2 0 1 0 2 1 259 
9 1 0 2 0 3 1 262 
9 2 0 4 0 2 1 263 
2 2 0 3 0 2 1 263 
10 3 0 3 0 2 1 263 
6 2 0 1 0 1 1 263 
9 2 0 3 0 2 1 263 
0 0 0 0 0 0 1 424 
0 0 0 0 0 0 1 265 
1 0 0 1 1 0 1 266 
8 0 0 4 1 0 3 271 268 267 
5 0 0 1 4 0 1 269 
1 0 0 2 4 0 1 269 
9 0 0 3 1 0 2 274 270 
4 0 0 3 5 0 4 284 277 273 272 
10 0 0 3 4 0 2 274 272 
6 0 0 1 1 0 1 275 
4 0 0 1 2 0 1 276 
8 0 0 2 2 0 4 284 283 282 279 
4 0 0 3 1 0 2 283 278 
6 0 0 4 3 0 2 283 278 
1 0 0 2 1 0 2 283 278 
6 0 0 5 2 0 2 282 279 
1 0 0 5 3 0 2 281 280 
1 0 0 2 4 0 1 285 
5 0 0 2 4 0 1 285 
6 0 0 2 2 0 1 285 
1 0 0 3 3 0 2 285 358 
1 0 0 1 2 0 1 285 
0 0 0 0 0 0 1 424 
0 0 0 0 0 0 5 287 304 305 306 408 
9 0 1 0 1 0 3 303 302 288 
6 0 2 0 6 0 1 289 
8 0 5 0 5 0 2 301 290 
9 0 1 0 5 0 2 300 291 
8 0 3 0 3 0 2 299 292 
10 0 3 0 2 0 2 298 293 
8 0 2 0 2 0 2 297 294 
1 0 3 0 2 0 1 295 
1 0 4 0 1 0 1 296 
1 0 3 0 3 0 1 307 
2 0 1 0 2 0 1 307 
5 0 2 0 1 0 1 307 
4 0 3 0 2 0 1 307 
6 0 3 0 2 0 1 307 
10 0 3 0 2 0 1 307 
7 0 2 0 2 0 1 307 
5 0 4 0 2 0 1 307 
10 0 3 0 2 0 1 307 
4 0 1 0 1 0 1 307 
3 0 1 0 4 0 1 307 
0 0 0 0 0 0 1 424 
0 0 0 0 0 0 2 309 328 
6 0 0 1 0 1 1 310 
10 0 0 3 0 4 2 318 311 
4 0 0 1 0 1 1 312 
6 0 0 3 0 3 2 320 313 
8 0 0 2 0 2 4 326 325 316 314 
9 0 0 1 0 4 1 315 
9 0 0 3 0 4 2 324 317 
2 0 0 7 0 3 2 324 317 
10 0 0 1 0 1 3 323 322 319 
1 0 0 3 0 1 3 326 325 321 
4 0 0 5 0 1 1 321 
5 0 0 1 0 3 1 327 
3 0 0 4 0 1 1 329 
7 0 0 2 0 1 1 329 
9 0 0 2 0 3 1 329 
7 0 0 3 0 2 1 329 
8 0 0 3 0 3 1 329 
3 0 0 2 0 2 2 329 414 
10 0 0 1 0 5 1 329 
10 0 0 2 0 5 1 329 
0 0 0 0 0 0 1 424 
0 0 0 0 0 0 3 331 335 340 
8 1 0 0 0 0 2 333 332 
7 3 0 0 0 0 2 337 334 
2 4 0 0 0 0 2 337 334 
6 2 0 0 0 0 2 339 336 
8 2 0 0 0 0 1 336 
4 2 0 0 0 0 1 338 
2 3 0 0 0 0 1 338 
7 3 0 0 0 0 1 341 
1 4 0 0 0 0 1 341 
8 1 0 0 0 0 1 341 
0 0 0 0 0 0 5 364 376 388 400 412 
0 0 0 0 0 0 1 343 
9 1 1 0 0 0 2 348 344 
1 1 2 0 0 0 1 345 
6 1 2 0 0 0 3 361 354 346 
6 1 3 0 0 0 2 362 347 
6 2 3 0 0 0 3 359 353 349 
7 4 4 0 0 0 4 361 359 353 350 
8 2 5 0 0 0 3 360 358 350 
8 3 2 0 0 0 3 357 356 351 
7 2 1 0 0 0 1 352 
4 4 2 0 0 0 1 355 
3 3 2 0 0 0 1 355 
5 4 2 0 0 0 1 358 
3 1 2 0 0 0 1 363 
6 6 1 0 0 0 1 363 
5 5 2 0 0 0 1 363 
5 2 2 0 0 0 1 363 
4 2 3 0 0 0 1 363 
3 1 4 0 0 0 1 363 
10 3 5 0 0 0 1 363 
6 2 2 0 0 0 1 363 
0 0 0 0 0 0 1 424 
0 0 0 0 0 0 5 365 368 369 371 374 
7 1 0 0 0 0 2 373 366 
2 3 0 0 0 0 1 367 
7 3 0 0 0 0 1 370 
5 3 0 0 0 0 1 370 
2 2 0 0 0 0 1 370 
1 1 0 0 0 0 1 372 
2 2 0 0 0 0 1 372 
4 1 0 0 0 0 1 375 
1 6 0 0 0 0 1 375 
1 3 0 0 0 0 1 375 
0 0 0 0 0 0 1 424 
0 0 0 0 0 0 4 377 384 385 386 
5 0 1 0 0 0 1 378 
6 0 1 0 0 0 3 383 382 379 
4 0 7 0 0 0 1 380 
1 0 2 0 0 0 1 381 
7 0 3 0 0 0 1 387 
10 0 1 0 0 0 1 387 
10 0 3 0 0 0 1 387 
9 0 1 0 0 0 1 387 
5 0 5 0 0 0 1 387 
1 0 1 0 0 0 1 387 
0 0 0 0 0 0 1 424 
0 0 0 0 0 0 2 389 392 
9 0 0 1 0 0 3 395 394 390 
8 0 0 1 0 0 1 391 
8 0 0 2 0 0 1 393 
6 0 0 3 0 0 1 393 
2 0 0 2 0 0 3 398 397 396 
8 0 0 4 0 0 1 396 
5 0 0 3 0 0 1 396 
1 0 0 3 0 0 1 399 
10 0 0 3 0 0 1 399 
10 0 0 3 0 0 1 399 
0 0 0 0 0 0 1 424 
0 0 0 0 0 0 1 401 
10 0 0 0 1 0 3 410 409 402 
4 0 0 0 2 0 2 408 403 
3 0 0 0 3 0 3 407 406 404 
6 0 0 0 2 0 1 405 
3 0 0 0 5 0 1 411 
8 0 0 0 3 0 1 411 
5 0 0 0 1 0 1 411 
1 0 0 0 2 0 1 411 
9 0 0 0 2 0 1 411 
9 0 0 0 4 0 1 411 
0 0 0 0 0 0 1 424 
0 0 0 0 0 0 4 413 417 418 422 
5 0 1 0 0 0 1 414 
7 0 5 0 0 0 2 420 415 
7 0 2 0 0 0 1 416 
2 0 2 0 0 0 1 419 
9 0 4 0 0 0 1 421 
8 0 2 0 0 0 1 420 
6 0 3 0 0 0 1 423 
4 0 2 0 0 0 1 423 
9 0 3 0 0 0 1 423 
4 0 1 0 0 0 1 423 
0 0 0 0 0 0 1 424 
0 0 0 0 0 0 0 
